lkh/instances/x_region_loslagos.tsp
NAME: x_region_loslagos
TYPE: TSP
COMMENT: Simulated region x_region_loslagos
DIMENSION: 9
EDGE_WEIGHT_TYPE: EUC_2D
NODE_COORD_SECTION
1 60 60
2 75 75
3 90 70
4 85 50
5 70 35
6 55 20
7 40 30
8 25 45
9 50 55
EOF
