lkh/tours/x_region_loslagos.tour
x_region_loslagos, Cost: 95_268
The tours traveled by the 3 salesmen are:
1 2 3 4 1 (#3)  Cost: 85
1 7 8 9 1 (#3)  Cost: 95
1 5 6 1 (#2)  Cost: 88
